benchmarks_CP/INST_49x49/50/inst49x49_50_45.dzn
S=7;
start=[|
-1,	-1,	26,	15,	-1,	-1,	39,	-1,	27,	18,	-1,	47,	-1,	43,	-1,	3,	-1,	48,	-1,	33,	-1,	24,	22,	9,	17,	2,	-1,	14,	42,	-1,	38,	36,	46,	5,	-1,	-1,	45,	-1,	49,	40,	13,	6,	-1,	12,	-1,	-1,	1,	-1,	44|
44,	22,	-1,	24,	35,	-1,	-1,	5,	-1,	41,	2,	-1,	-1,	36,	-1,	27,	-1,	18,	16,	29,	25,	38,	33,	-1,	-1,	48,	-1,	47,	-1,	28,	-1,	-1,	-1,	1,	-1,	-1,	12,	-1,	-1,	15,	-1,	37,	-1,	4,	-1,	46,	-1,	30,	21|
-1,	-1,	-1,	36,	37,	49,	-1,	40,	-1,	45,	39,	-1,	-1,	28,	-1,	-1,	-1,	47,	-1,	-1,	-1,	-1,	7,	-1,	-1,	1,	35,	43,	-1,	-1,	21,	-1,	44,	-1,	19,	-1,	-1,	26,	-1,	-1,	20,	30,	22,	9,	24,	42,	15,	29,	3|
-1,	-1,	-1,	-1,	-1,	-1,	-1,	4,	-1,	37,	9,	-1,	10,	42,	24,	28,	22,	-1,	44,	13,	38,	49,	3,	26,	-1,	32,	-1,	-1,	43,	-1,	29,	47,	-1,	-1,	40,	-1,	41,	-1,	-1,	-1,	-1,	-1,	-1,	-1,	7,	-1,	-1,	-1,	17|
-1,	9,	3,	31,	-1,	40,	17,	-1,	29,	6,	21,	-1,	24,	12,	26,	37,	43,	-1,	-1,	-1,	23,	44,	-1,	10,	34,	-1,	18,	46,	-1,	14,	4,	-1,	22,	15,	-1,	33,	35,	28,	38,	42,	-1,	16,	25,	-1,	-1,	5,	-1,	-1,	13|
30,	19,	18,	-1,	-1,	-1,	-1,	22,	-1,	-1,	20,	3,	44,	14,	9,	21,	-1,	-1,	-1,	-1,	-1,	-1,	5,	-1,	-1,	-1,	-1,	15,	-1,	-1,	-1,	-1,	-1,	17,	10,	29,	1,	43,	-1,	-1,	23,	-1,	-1,	-1,	47,	45,	-1,	-1,	-1|
20,	16,	-1,	41,	-1,	-1,	-1,	11,	-1,	-1,	49,	-1,	38,	46,	-1,	-1,	-1,	2,	-1,	-1,	39,	-1,	-1,	-1,	36,	-1,	42,	23,	24,	-1,	-1,	-1,	25,	26,	-1,	22,	-1,	47,	-1,	-1,	-1,	31,	-1,	43,	14,	28,	6,	18,	-1|
-1,	-1,	39,	-1,	31,	-1,	-1,	9,	5,	33,	23,	16,	46,	-1,	-1,	32,	-1,	-1,	-1,	40,	41,	3,	-1,	15,	-1,	-1,	-1,	42,	-1,	-1,	19,	-1,	28,	22,	24,	45,	-1,	4,	-1,	35,	49,	13,	-1,	30,	8,	6,	20,	-1,	12|
46,	-1,	-1,	8,	42,	-1,	-1,	28,	3,	-1,	45,	-1,	19,	-1,	36,	6,	44,	-1,	35,	-1,	27,	20,	-1,	-1,	43,	13,	41,	-1,	7,	-1,	-1,	10,	2,	30,	29,	18,	26,	-1,	34,	12,	16,	23,	15,	-1,	-1,	4,	48,	-1,	11|
37,	25,	-1,	-1,	38,	-1,	35,	-1,	14,	44,	-1,	-1,	-1,	-1,	22,	13,	16,	23,	-1,	31,	49,	2,	-1,	45,	-1,	47,	12,	36,	-1,	-1,	-1,	20,	21,	-1,	26,	-1,	43,	30,	-1,	5,	-1,	8,	24,	-1,	-1,	18,	-1,	46,	29|
-1,	-1,	-1,	-1,	-1,	2,	-1,	-1,	-1,	-1,	-1,	-1,	-1,	-1,	-1,	-1,	25,	-1,	15,	-1,	-1,	32,	-1,	39,	35,	-1,	4,	28,	-1,	46,	-1,	18,	9,	37,	-1,	24,	21,	-1,	36,	31,	27,	22,	-1,	-1,	5,	14,	7,	-1,	-1|
-1,	15,	40,	48,	-1,	-1,	-1,	36,	32,	43,	-1,	-1,	-1,	-1,	-1,	5,	-1,	8,	-1,	-1,	-1,	14,	-1,	18,	-1,	-1,	33,	21,	-1,	31,	-1,	27,	-1,	35,	25,	41,	-1,	-1,	-1,	29,	-1,	-1,	34,	3,	-1,	23,	-1,	22,	-1|
-1,	-1,	-1,	-1,	-1,	36,	-1,	-1,	-1,	8,	-1,	39,	13,	38,	18,	45,	-1,	-1,	-1,	-1,	46,	17,	27,	24,	30,	-1,	31,	-1,	23,	6,	-1,	-1,	14,	4,	16,	-1,	25,	-1,	-1,	-1,	-1,	-1,	33,	32,	2,	-1,	-1,	41,	37|
-1,	-1,	-1,	23,	30,	-1,	41,	24,	37,	22,	-1,	-1,	2,	31,	-1,	-1,	33,	-1,	9,	-1,	-1,	-1,	6,	48,	49,	-1,	-1,	29,	-1,	44,	3,	-1,	15,	-1,	38,	46,	10,	-1,	19,	47,	11,	-1,	1,	-1,	-1,	-1,	36,	25,	43|
14,	-1,	-1,	2,	-1,	21,	-1,	-1,	-1,	11,	-1,	31,	43,	-1,	41,	20,	45,	-1,	38,	6,	15,	10,	-1,	5,	-1,	-1,	40,	30,	37,	-1,	-1,	-1,	-1,	-1,	36,	-1,	-1,	-1,	-1,	34,	-1,	24,	-1,	-1,	18,	12,	-1,	-1,	19|
-1,	-1,	37,	12,	-1,	-1,	-1,	17,	22,	47,	-1,	-1,	7,	-1,	13,	-1,	-1,	44,	-1,	-1,	40,	-1,	-1,	-1,	29,	-1,	-1,	18,	-1,	15,	-1,	-1,	49,	-1,	-1,	-1,	48,	-1,	10,	23,	2,	41,	42,	-1,	16,	20,	-1,	-1,	-1|
19,	7,	-1,	-1,	8,	31,	-1,	-1,	-1,	46,	10,	-1,	20,	-1,	5,	2,	-1,	28,	29,	36,	37,	22,	-1,	-1,	26,	-1,	17,	-1,	11,	-1,	18,	3,	-1,	-1,	-1,	-1,	-1,	-1,	1,	-1,	-1,	-1,	-1,	41,	43,	48,	39,	-1,	-1|
-1,	40,	-1,	-1,	-1,	1,	-1,	-1,	-1,	-1,	3,	-1,	8,	-1,	14,	9,	-1,	-1,	22,	48,	-1,	-1,	16,	-1,	45,	23,	2,	39,	-1,	-1,	24,	-1,	29,	42,	5,	38,	-1,	-1,	43,	26,	-1,	49,	6,	-1,	34,	-1,	35,	44,	-1|
22,	49,	-1,	16,	20,	5,	-1,	23,	-1,	2,	44,	-1,	40,	9,	27,	-1,	-1,	39,	-1,	26,	31,	7,	-1,	34,	28,	38,	-1,	4,	6,	35,	41,	33,	-1,	-1,	48,	42,	3,	37,	-1,	-1,	-1,	-1,	29,	-1,	46,	47,	-1,	-1,	-1|
18,	38,	-1,	35,	29,	15,	36,	25,	41,	-1,	14,	45,	42,	-1,	23,	24,	-1,	-1,	-1,	-1,	-1,	-1,	-1,	43,	13,	-1,	-1,	-1,	44,	-1,	-1,	-1,	-1,	46,	-1,	-1,	-1,	39,	-1,	-1,	-1,	-1,	21,	26,	33,	-1,	-1,	31,	2|
48,	-1,	-1,	-1,	43,	-1,	-1,	27,	38,	-1,	-1,	-1,	-1,	18,	11,	-1,	-1,	42,	-1,	21,	10,	6,	-1,	36,	8,	41,	-1,	24,	-1,	47,	-1,	31,	26,	-1,	-1,	-1,	19,	-1,	33,	4,	-1,	20,	40,	-1,	23,	-1,	9,	-1,	-1|
-1,	8,	-1,	-1,	40,	-1,	-1,	-1,	-1,	-1,	-1,	-1,	-1,	7,	-1,	-1,	20,	-1,	33,	-1,	45,	-1,	24,	-1,	-1,	-1,	23,	10,	-1,	-1,	-1,	1,	47,	6,	15,	14,	42,	32,	-1,	44,	35,	34,	-1,	19,	-1,	13,	21,	27,	39|
-1,	30,	-1,	-1,	-1,	-1,	-1,	8,	49,	-1,	-1,	-1,	21,	26,	-1,	-1,	-1,	31,	-1,	46,	13,	34,	15,	-1,	-1,	12,	47,	-1,	-1,	43,	10,	24,	3,	-1,	33,	-1,	6,	27,	18,	-1,	-1,	28,	-1,	48,	-1,	11,	5,	1,	20|
-1,	36,	4,	47,	-1,	14,	-1,	18,	-1,	-1,	-1,	42,	1,	20,	-1,	26,	-1,	35,	48,	-1,	-1,	40,	44,	-1,	21,	25,	9,	41,	5,	11,	7,	34,	-1,	-1,	-1,	-1,	-1,	24,	-1,	43,	22,	46,	37,	-1,	-1,	31,	-1,	15,	32|
21,	-1,	-1,	-1,	6,	35,	-1,	-1,	-1,	-1,	13,	27,	-1,	-1,	-1,	-1,	-1,	-1,	28,	-1,	34,	30,	-1,	-1,	-1,	-1,	-1,	48,	-1,	-1,	16,	-1,	42,	8,	-1,	-1,	-1,	-1,	45,	-1,	47,	-1,	-1,	33,	29,	44,	24,	-1,	23|
-1,	-1,	-1,	10,	-1,	26,	24,	-1,	23,	-1,	-1,	-1,	-1,	-1,	-1,	-1,	-1,	-1,	8,	-1,	11,	46,	-1,	27,	-1,	17,	43,	-1,	-1,	25,	-1,	28,	-1,	-1,	30,	40,	-1,	20,	31,	-1,	-1,	-1,	-1,	-1,	12,	22,	-1,	-1,	35|
33,	-1,	25,	-1,	34,	32,	20,	-1,	-1,	14,	15,	-1,	28,	47,	10,	42,	21,	-1,	12,	27,	43,	45,	-1,	-1,	-1,	3,	-1,	5,	22,	-1,	-1,	-1,	23,	44,	-1,	26,	49,	-1,	13,	-1,	-1,	-1,	-1,	-1,	30,	-1,	-1,	-1,	-1|
-1,	-1,	44,	-1,	23,	-1,	-1,	10,	-1,	24,	19,	-1,	35,	41,	-1,	15,	-1,	-1,	5,	-1,	-1,	1,	36,	32,	-1,	22,	6,	2,	-1,	-1,	-1,	-1,	27,	31,	-1,	37,	-1,	-1,	-1,	9,	-1,	-1,	-1,	-1,	-1,	7,	-1,	-1,	-1|
-1,	-1,	14,	-1,	-1,	-1,	-1,	2,	18,	10,	43,	49,	36,	-1,	12,	-1,	28,	-1,	-1,	22,	-1,	-1,	25,	42,	-1,	30,	-1,	-1,	1,	7,	31,	32,	38,	27,	47,	8,	20,	-1,	37,	-1,	-1,	-1,	13,	16,	-1,	33,	-1,	-1,	6|
-1,	6,	-1,	28,	-1,	-1,	-1,	30,	-1,	23,	24,	13,	15,	-1,	-1,	-1,	-1,	1,	-1,	7,	33,	-1,	48,	3,	9,	14,	-1,	-1,	-1,	26,	44,	11,	20,	-1,	-1,	2,	-1,	-1,	32,	49,	-1,	27,	-1,	-1,	35,	-1,	-1,	42,	-1|
-1,	24,	-1,	-1,	26,	33,	1,	-1,	-1,	-1,	-1,	20,	-1,	34,	-1,	23,	-1,	-1,	14,	42,	36,	-1,	-1,	-1,	44,	4,	-1,	-1,	-1,	-1,	12,	-1,	13,	-1,	6,	17,	-1,	35,	16,	-1,	21,	-1,	-1,	15,	-1,	-1,	-1,	-1,	-1|
34,	-1,	15,	-1,	-1,	-1,	-1,	-1,	21,	-1,	-1,	-1,	-1,	-1,	-1,	-1,	46,	5,	-1,	-1,	9,	-1,	41,	40,	24,	-1,	38,	-1,	-1,	-1,	35,	2,	18,	-1,	37,	28,	30,	23,	48,	22,	7,	1,	4,	-1,	19,	-1,	49,	11,	-1|
-1,	-1,	42,	37,	-1,	-1,	-1,	32,	16,	31,	35,	-1,	6,	-1,	-1,	-1,	-1,	-1,	26,	-1,	48,	-1,	2,	33,	22,	-1,	-1,	19,	-1,	49,	28,	45,	-1,	-1,	-1,	-1,	13,	-1,	-1,	-1,	-1,	-1,	-1,	23,	-1,	36,	30,	-1,	-1|
-1,	2,	11,	49,	47,	-1,	29,	44,	7,	9,	41,	22,	-1,	-1,	37,	31,	10,	34,	25,	45,	18,	35,	-1,	-1,	-1,	-1,	-1,	-1,	30,	24,	42,	-1,	43,	-1,	4,	15,	36,	12,	-1,	33,	46,	-1,	-1,	1,	27,	-1,	14,	-1,	40|
35,	13,	36,	20,	3,	23,	-1,	-1,	-1,	-1,	37,	38,	39,	4,	-1,	49,	19,	-1,	47,	-1,	-1,	-1,	-1,	1,	-1,	34,	-1,	-1,	-1,	-1,	-1,	-1,	-1,	25,	8,	-1,	44,	-1,	11,	-1,	26,	42,	-1,	-1,	21,	-1,	41,	10,	-1|
41,	-1,	20,	11,	16,	-1,	-1,	-1,	-1,	30,	1,	10,	17,	-1,	-1,	48,	-1,	-1,	37,	34,	3,	-1,	-1,	-1,	-1,	39,	49,	44,	28,	-1,	-1,	-1,	35,	36,	-1,	43,	18,	15,	-1,	46,	-1,	26,	14,	-1,	40,	-1,	-1,	33,	22|
10,	-1,	-1,	40,	1,	42,	-1,	41,	19,	20,	6,	-1,	33,	25,	-1,	46,	39,	36,	-1,	8,	-1,	-1,	47,	-1,	14,	-1,	-1,	-1,	31,	23,	11,	-1,	37,	-1,	44,	48,	24,	49,	-1,	21,	-1,	-1,	12,	18,	15,	-1,	13,	45,	-1|
-1,	-1,	-1,	9,	-1,	-1,	-1,	14,	-1,	39,	40,	-1,	-1,	-1,	-1,	-1,	-1,	-1,	-1,	-1,	-1,	-1,	28,	-1,	-1,	15,	26,	45,	10,	34,	49,	-1,	16,	47,	20,	-1,	-1,	8,	41,	13,	-1,	33,	3,	-1,	4,	-1,	32,	35,	46|
-1,	-1,	6,	14,	22,	12,	-1,	43,	44,	-1,	-1,	48,	5,	-1,	25,	7,	-1,	-1,	-1,	28,	16,	-1,	-1,	-1,	-1,	-1,	13,	3,	-1,	29,	15,	46,	-1,	-1,	-1,	11,	-1,	19,	-1,	37,	-1,	17,	-1,	-1,	-1,	-1,	-1,	26,	-1|
-1,	31,	-1,	19,	-1,	-1,	23,	3,	-1,	-1,	-1,	-1,	9,	-1,	-1,	-1,	13,	-1,	41,	-1,	20,	21,	-1,	-1,	-1,	-1,	-1,	-1,	26,	42,	-1,	25,	-1,	48,	1,	-1,	40,	10,	28,	32,	-1,	-1,	-1,	-1,	-1,	-1,	29,	-1,	16|
45,	-1,	21,	-1,	2,	-1,	-1,	7,	-1,	-1,	47,	-1,	32,	16,	33,	-1,	-1,	26,	31,	11,	44,	48,	-1,	-1,	5,	-1,	-1,	-1,	-1,	-1,	13,	40,	17,	-1,	-1,	20,	27,	-1,	-1,	-1,	-1,	-1,	-1,	49,	1,	-1,	-1,	34,	-1|
13,	-1,	-1,	17,	-1,	3,	26,	-1,	-1,	-1,	-1,	-1,	11,	29,	47,	-1,	14,	10,	-1,	5,	-1,	-1,	-1,	46,	40,	-1,	-1,	-1,	8,	-1,	39,	7,	-1,	33,	9,	1,	16,	22,	-1,	30,	45,	-1,	-1,	42,	-1,	21,	-1,	-1,	-1|
42,	-1,	-1,	-1,	46,	47,	-1,	-1,	-1,	36,	-1,	8,	49,	-1,	3,	-1,	23,	4,	-1,	-1,	-1,	18,	-1,	17,	11,	27,	48,	-1,	-1,	-1,	1,	6,	41,	-1,	2,	19,	34,	31,	-1,	-1,	-1,	-1,	-1,	13,	10,	-1,	25,	5,	9|
40,	45,	1,	44,	39,	11,	-1,	31,	20,	-1,	27,	21,	14,	37,	-1,	-1,	41,	30,	7,	-1,	-1,	9,	12,	-1,	-1,	-1,	46,	22,	15,	33,	-1,	8,	-1,	-1,	43,	32,	5,	-1,	47,	17,	-1,	10,	-1,	29,	-1,	-1,	18,	-1,	26|
32,	21,	-1,	-1,	-1,	-1,	-1,	39,	-1,	40,	5,	-1,	-1,	-1,	-1,	-1,	-1,	-1,	46,	38,	-1,	-1,	-1,	-1,	33,	-1,	14,	1,	-1,	-1,	47,	-1,	-1,	-1,	28,	36,	-1,	-1,	26,	-1,	8,	-1,	7,	-1,	-1,	-1,	44,	-1,	41|
-1,	-1,	34,	-1,	-1,	-1,	-1,	6,	-1,	7,	-1,	-1,	-1,	-1,	-1,	-1,	-1,	19,	10,	9,	-1,	42,	-1,	8,	-1,	-1,	36,	38,	-1,	3,	-1,	-1,	-1,	-1,	-1,	-1,	-1,	33,	24,	1,	15,	-1,	-1,	-1,	37,	16,	2,	-1,	14|
-1,	-1,	35,	7,	-1,	-1,	-1,	47,	-1,	16,	42,	-1,	-1,	24,	-1,	-1,	36,	22,	-1,	44,	8,	-1,	34,	-1,	23,	-1,	-1,	-1,	-1,	9,	17,	-1,	4,	10,	18,	27,	-1,	-1,	30,	-1,	-1,	21,	32,	11,	49,	40,	-1,	38,	-1|
31,	23,	43,	22,	-1,	8,	-1,	26,	10,	-1,	34,	18,	-1,	-1,	29,	-1,	-1,	-1,	45,	-1,	-1,	-1,	-1,	37,	2,	6,	24,	-1,	-1,	21,	-1,	-1,	5,	-1,	11,	-1,	-1,	38,	35,	20,	-1,	9,	-1,	46,	-1,	1,	3,	4,	36|
36,	-1,	33,	-1,	-1,	9,	-1,	-1,	4,	28,	-1,	-1,	-1,	-1,	31,	47,	-1,	-1,	1,	-1,	-1,	-1,	-1,	-1,	10,	40,	-1,	49,	19,	16,	26,	37,	32,	12,	42,	3,	-1,	2,	22,	39,	6,	-1,	-1,	-1,	45,	-1,	-1,	-1,	-1|];
