sudoku-ls/benchmarks_LEQ/INST_49x49/50/inst49x49_50_45.txt
7
1
23	34	-1	15	21	28	-1	-1	27	-1	-1	47	30	43	-1	3	-1	48	-1	-1	-1	-1	22	9	17	2	29	-1	-1	-1	38	36	46	-1	35	25	45	-1	49	-1	-1	6	-1	12	11	41	1	-1	44
44	-1	13	24	35	43	-1	5	-1	-1	2	-1	31	-1	45	-1	-1	-1	-1	29	-1	-1	-1	11	-1	-1	-1	-1	3	-1	-1	-1	-1	1	-1	-1	12	9	-1	15	-1	37	-1	4	32	46	-1	30	21
38	-1	-1	-1	-1	49	-1	40	-1	-1	-1	33	-1	28	46	-1	6	47	32	12	14	31	-1	-1	41	1	35	43	-1	18	21	-1	-1	13	-1	-1	17	26	-1	27	20	30	-1	9	24	-1	-1	-1	3
-1	33	-1	1	14	6	-1	-1	34	37	9	-1	-1	42	-1	-1	22	15	-1	-1	38	-1	-1	26	-1	-1	-1	25	43	-1	29	47	-1	-1	40	-1	-1	-1	-1	-1	48	18	-1	8	-1	35	23	-1	17
47	9	-1	31	-1	40	17	1	-1	6	-1	32	-1	12	26	-1	43	49	-1	-1	-1	44	-1	-1	34	45	-1	-1	-1	14	-1	39	22	15	7	33	-1	-1	-1	-1	-1	-1	25	-1	48	-1	-1	2	13
30	-1	-1	25	-1	-1	-1	-1	13	-1	-1	-1	-1	14	-1	21	-1	7	36	35	-1	39	5	12	37	28	-1	15	33	48	6	-1	11	17	10	-1	1	43	46	-1	-1	2	-1	31	47	-1	34	-1	38
-1	-1	8	-1	45	-1	-1	-1	-1	-1	-1	15	38	46	-1	17	5	2	34	10	39	-1	40	30	36	-1	-1	23	-1	-1	-1	-1	-1	-1	27	22	-1	47	-1	-1	44	31	19	-1	-1	28	-1	-1	33
-1	-1	39	-1	31	18	11	9	5	-1	23	16	-1	10	48	32	29	14	43	-1	41	3	-1	15	-1	44	-1	42	-1	36	19	17	28	-1	24	45	-1	-1	-1	35	-1	13	27	-1	-1	6	20	21	-1
-1	14	32	-1	-1	24	9	-1	-1	49	45	25	-1	21	-1	-1	-1	38	35	-1	27	20	-1	22	43	13	41	-1	-1	-1	-1	-1	-1	-1	29	-1	26	17	-1	-1	-1	23	-1	39	-1	-1	48	47	-1
37	25	10	-1	38	-1	-1	-1	14	-1	-1	41	27	-1	-1	-1	16	23	-1	31	-1	-1	-1	45	-1	-1	-1	36	-1	1	-1	20	21	11	26	-1	43	-1	-1	-1	-1	8	-1	-1	-1	-1	40	-1	29
49	43	-1	33	-1	2	-1	-1	-1	-1	-1	29	26	1	34	-1	25	-1	-1	47	30	32	-1	-1	-1	-1	4	28	-1	46	-1	18	-1	-1	13	24	21	-1	36	-1	27	-1	-1	-1	-1	14	-1	19	45
12	-1	40	48	-1	13	47	36	-1	43	17	11	4	30	-1	5	2	-1	24	-1	19	-1	-1	-1	-1	7	-1	21	49	31	45	27	-1	35	-1	41	-1	6	-1	-1	42	38	34	-1	9	23	16	22	-1
-1	-1	-1	-1	-1	-1	22	35	-1	-1	-1	39	13	38	-1	45	-1	-1	11	-1	-1	-1	27	24	-1	-1	31	-1	23	-1	-1	-1	14	-1	16	-1	-1	48	-1	28	-1	44	33	-1	-1	-1	42	-1	37
28	27	-1	23	30	20	41	24	37	-1	-1	-1	-1	-1	7	4	-1	17	-1	39	-1	16	-1	48	49	-1	5	29	-1	-1	3	-1	-1	-1	38	-1	10	14	19	47	-1	-1	1	-1	13	-1	36	-1	43
14	3	-1	2	9	-1	44	-1	26	-1	-1	31	43	35	41	-1	-1	-1	38	6	-1	-1	32	-1	-1	42	40	-1	-1	-1	-1	13	-1	-1	-1	7	-1	-1	27	34	17	24	28	25	18	12	-1	-1	-1
-1	26	-1	-1	-1	-1	27	17	-1	-1	32	34	7	39	-1	8	-1	-1	3	-1	-1	-1	-1	31	29	33	1	18	38	-1	43	-1	-1	-1	45	-1	48	21	10	-1	2	41	42	5	-1	20	11	-1	-1
-1	7	-1	-1	8	31	-1	21	24	46	10	-1	20	-1	5	2	34	-1	29	36	37	-1	-1	25	-1	-1	-1	27	11	-1	18	3	-1	-1	32	30	-1	-1	1	-1	-1	-1	38	41	-1	48	-1	-1	15
11	-1	-1	-1	10	-1	25	33	12	-1	-1	-1	8	-1	-1	-1	-1	-1	22	-1	7	15	16	-1	-1	23	2	39	17	20	24	21	-1	42	-1	-1	31	-1	43	26	32	-1	-1	-1	-1	27	-1	-1	30
22	49	-1	16	20	5	13	23	36	2	-1	30	-1	-1	-1	-1	12	-1	19	-1	-1	-1	21	-1	-1	-1	-1	-1	-1	35	-1	-1	-1	14	-1	-1	3	-1	-1	-1	-1	-1	-1	-1	-1	47	-1	32	1
18	38	30	35	29	-1	36	25	41	-1	-1	45	42	-1	-1	-1	4	16	49	-1	-1	-1	20	-1	-1	9	3	12	44	8	-1	19	7	-1	34	6	22	39	40	11	-1	5	21	26	-1	10	-1	31	-1
-1	-1	28	32	43	34	45	-1	38	-1	29	5	37	-1	-1	-1	-1	-1	-1	21	-1	-1	46	-1	-1	41	44	-1	-1	47	30	31	26	-1	22	16	-1	-1	33	-1	-1	20	40	14	23	3	9	-1	-1
43	-1	31	5	40	-1	-1	-1	11	3	-1	-1	-1	7	30	22	-1	-1	-1	17	45	28	-1	29	-1	-1	23	-1	18	2	-1	-1	47	-1	15	-1	-1	32	-1	44	35	-1	-1	19	-1	-1	21	27	-1
-1	30	-1	39	-1	-1	37	-1	49	-1	36	17	21	26	44	14	9	31	-1	-1	13	-1	-1	38	-1	-1	47	-1	32	43	10	-1	3	40	33	4	-1	27	-1	2	25	-1	45	48	41	11	5	1	-1
-1	36	4	-1	12	14	-1	-1	-1	-1	-1	-1	-1	-1	-1	-1	-1	35	-1	-1	6	-1	-1	-1	-1	25	-1	41	-1	-1	7	34	-1	29	-1	23	8	24	-1	-1	-1	-1	-1	-1	-1	-1	-1	15	32
-1	18	9	3	-1	-1	-1	-1	31	32	-1	27	22	40	-1	-1	-1	25	-1	-1	-1	30	11	14	-1	-1	-1	48	4	-1	-1	26	42	-1	-1	5	38	41	45	10	47	36	46	-1	-1	-1	-1	-1	23
-1	-1	-1	-1	13	26	24	-1	23	5	-1	44	-1	2	-1	-1	-1	-1	-1	-1	11	-1	49	-1	39	17	43	-1	-1	-1	-1	28	19	-1	-1	40	15	-1	31	-1	3	48	-1	6	12	22	-1	14	-1
33	48	-1	38	-1	32	20	-1	-1	14	-1	6	-1	47	10	42	-1	-1	-1	-1	-1	-1	-1	7	-1	-1	-1	5	-1	41	-1	35	23	44	-1	26	49	1	13	-1	-1	11	2	-1	-1	-1	4	-1	-1
-1	11	-1	46	-1	45	28	-1	48	-1	-1	43	-1	41	40	15	-1	-1	-1	-1	29	-1	-1	-1	-1	22	-1	-1	-1	-1	-1	14	-1	31	-1	37	33	-1	21	-1	-1	39	26	-1	25	-1	8	49	42
9	17	14	45	-1	44	-1	-1	18	10	-1	-1	36	-1	12	-1	28	21	4	-1	-1	-1	25	-1	15	30	-1	-1	-1	-1	-1	-1	-1	-1	47	-1	20	-1	-1	41	24	40	13	-1	-1	33	-1	-1	6
25	-1	5	28	-1	22	-1	-1	-1	-1	-1	-1	-1	-1	-1	-1	-1	-1	-1	-1	-1	36	-1	3	9	14	45	37	16	26	44	-1	-1	19	-1	-1	4	18	32	49	-1	27	-1	-1	35	-1	12	-1	-1
39	-1	46	30	26	33	-1	19	40	-1	11	-1	-1	34	-1	23	3	32	14	-1	-1	5	18	49	44	-1	-1	-1	-1	10	-1	-1	-1	-1	-1	17	9	35	16	-1	21	45	-1	-1	-1	2	-1	28	7
-1	32	-1	-1	27	10	-1	42	21	12	26	-1	45	-1	-1	44	-1	-1	13	16	9	47	-1	-1	-1	29	38	-1	36	-1	35	-1	18	-1	-1	-1	-1	23	48	-1	7	-1	4	20	19	25	-1	11	-1
-1	12	42	-1	-1	-1	-1	-1	-1	-1	35	-1	-1	17	-1	-1	27	11	-1	20	48	8	-1	33	-1	46	10	19	40	49	-1	45	34	21	14	47	-1	-1	-1	25	-1	-1	5	-1	44	-1	30	-1	24
-1	-1	-1	49	47	-1	-1	44	-1	9	-1	22	48	-1	-1	-1	10	34	-1	-1	18	-1	13	-1	-1	20	-1	26	30	-1	-1	5	-1	23	-1	-1	36	-1	6	-1	46	-1	-1	1	27	-1	-1	-1	40
35	-1	36	20	3	-1	-1	-1	-1	-1	37	38	-1	-1	2	-1	-1	-1	47	-1	24	-1	17	1	12	-1	-1	-1	-1	-1	46	-1	-1	-1	8	-1	44	-1	11	14	-1	-1	-1	45	21	32	-1	-1	48
41	47	20	11	-1	25	32	13	45	-1	-1	-1	-1	-1	-1	-1	-1	9	37	-1	3	-1	-1	6	-1	-1	-1	44	28	27	-1	-1	35	36	21	43	18	-1	29	-1	5	-1	14	-1	-1	-1	-1	33	-1
-1	-1	-1	-1	1	42	-1	41	19	20	-1	26	33	25	-1	-1	-1	36	-1	-1	22	-1	47	2	14	-1	-1	-1	-1	23	11	4	37	-1	-1	48	-1	49	9	-1	38	-1	-1	18	15	-1	-1	-1	-1
-1	-1	-1	9	-1	-1	-1	14	42	39	-1	-1	-1	27	-1	-1	-1	29	6	-1	1	11	28	-1	25	-1	26	45	10	34	49	-1	16	-1	-1	44	7	8	41	13	-1	-1	3	-1	-1	-1	-1	-1	-1
-1	35	-1	-1	-1	-1	-1	-1	44	21	-1	-1	5	49	-1	7	-1	-1	-1	-1	16	-1	10	-1	-1	36	-1	-1	-1	-1	15	46	30	32	41	11	-1	19	-1	37	34	17	-1	27	-1	24	-1	26	47
-1	31	27	19	-1	37	-1	3	-1	-1	-1	-1	-1	22	49	38	13	-1	41	43	20	21	4	35	-1	18	-1	-1	26	-1	5	-1	-1	-1	-1	-1	-1	-1	28	32	-1	47	11	44	39	-1	29	6	16
45	-1	-1	-1	2	-1	30	-1	-1	4	-1	24	32	-1	-1	12	15	26	-1	11	-1	48	-1	41	-1	37	22	-1	-1	-1	-1	-1	-1	-1	-1	20	-1	25	42	6	-1	35	23	49	1	43	10	34	-1
13	44	-1	17	18	3	26	-1	15	35	28	-1	-1	-1	47	-1	14	-1	-1	-1	-1	27	-1	46	40	24	34	-1	-1	12	-1	7	-1	33	9	-1	-1	-1	23	30	45	-1	41	-1	-1	-1	-1	-1	-1
-1	20	-1	26	-1	-1	12	-1	33	36	22	-1	-1	32	-1	-1	23	-1	-1	-1	-1	18	29	17	11	27	48	-1	-1	-1	1	-1	41	38	2	-1	34	31	-1	16	37	-1	-1	-1	-1	39	-1	5	-1
40	-1	-1	-1	-1	-1	38	-1	20	-1	-1	-1	14	37	6	34	-1	30	-1	-1	-1	-1	-1	-1	3	-1	46	22	-1	33	-1	-1	-1	24	43	32	5	-1	-1	17	-1	-1	48	-1	-1	-1	-1	-1	-1
32	21	2	-1	-1	-1	-1	-1	9	-1	5	35	3	19	-1	16	37	43	-1	38	-1	-1	-1	20	33	31	-1	1	-1	13	-1	-1	-1	49	-1	36	-1	-1	-1	18	8	-1	-1	-1	6	15	-1	24	-1
29	-1	34	13	28	-1	48	-1	-1	-1	-1	46	41	45	-1	18	11	19	-1	9	-1	42	-1	8	47	-1	-1	38	-1	3	-1	-1	40	20	31	-1	23	33	24	-1	-1	-1	35	21	-1	16	-1	12	14
-1	37	-1	7	-1	19	-1	-1	-1	-1	-1	2	-1	24	20	25	36	22	-1	44	8	26	-1	28	23	-1	15	13	-1	9	17	-1	-1	10	-1	-1	14	45	30	48	-1	-1	-1	-1	49	-1	33	-1	-1
-1	-1	-1	22	-1	8	16	-1	10	-1	34	18	-1	-1	29	33	48	27	-1	15	12	41	-1	37	-1	6	24	-1	-1	-1	14	30	-1	7	-1	13	28	-1	35	20	40	9	-1	-1	-1	1	-1	-1	-1
36	-1	33	18	15	9	14	48	-1	-1	-1	23	-1	11	31	47	35	13	1	24	-1	-1	-1	44	-1	-1	-1	49	19	16	-1	-1	-1	12	-1	-1	-1	2	-1	-1	-1	7	-1	-1	45	34	43	20	27
49 
15 33 25 16
39 39 33 23
18 11 4 23
4 8 16 49
11 45 35 38
49 41 47 7
43 28 26 40
37 20 14 26
22 12 33 48
37 1 43 45
15 10 47 44
40 36 38 12
44 10 17 48
40 41 41 29
12 2 36 38
22 13 24 15
48 10 2 9
33 7 1 10
44 46 38 24
42 28 23 49
15 6 44 12
49 39 35 30
28 5 5 21
40 33 31 2
44 31 35 34
6 10 33 19
31 27 21 8
17 18 44 45
35 8 33 42
16 17 28 41
1 17 41 19
7 37 12 9
9 31 30 21
10 8 25 21
7 9 25 6
28 23 31 21
11 34 38 46
36 32 33 6
1 7 3 11
43 16 35 7
44 17 13 48
31 20 3 46
47 26 7 44
12 5 9 17
27 22 39 29
14 36 37 16
30 44 16 10
45 33 2 26
18 42 25 35
